db/inputs/15054129021822614750156695064235646217.smt2
(set-logic QF_FP)
(declare-const x0 (_ FloatingPoint 11 53))
(declare-const x1 (_ FloatingPoint 11 53))
(declare-const x2 (_ FloatingPoint 11 53))
(declare-const x3 (_ FloatingPoint 11 53))
(declare-const x4 (_ FloatingPoint 11 53))
(declare-const x5 (_ FloatingPoint 11 53))
(declare-const x6 (_ FloatingPoint 11 53))
(declare-const x7 (_ FloatingPoint 11 53))
(declare-const x8 (_ FloatingPoint 11 53))
(declare-const x9 (_ FloatingPoint 11 53))
(declare-const x10 (_ FloatingPoint 11 53))
(declare-const x11 (_ FloatingPoint 11 53))
(declare-const x12 (_ FloatingPoint 11 53))
(declare-const x13 (_ FloatingPoint 11 53))
(declare-const x14 (_ FloatingPoint 11 53))
(declare-const x15 (_ FloatingPoint 11 53))
(declare-const x16 (_ FloatingPoint 11 53))
(declare-const x17 (_ FloatingPoint 11 53))
(declare-const x18 (_ FloatingPoint 11 53))
(assert (fp.lt (fp.div RNE (fp.add RNE x7 x18) (fp.mul RNE x9 x13)) (fp.neg (fp.add RNE x16 x7))))
(assert (fp.geq (fp.sub RNE (fp.mul RNE x15 x16) (fp.div RNE x13 x5)) (fp.mul RNE (fp.div RNE x7 x17) (fp.add RNE x6 x11))))
(assert (fp.lt (fp.neg (fp.sub RNE x5 x3)) (fp.sub RNE (fp.div RNE x15 x6) (fp.mul RNE x3 x11))))
(check-sat)
