db/data/15054129021822614750156695064235646217.z3.out
-------------------
2500.097463575
